NAME : XML100_3274_24
DIMENSION : 101
NB_CLUSTERS : 3
CLUSTERING_ALG : KMedoids
CLUSTERING_PARAMS : k(2)
CLUSTERS
1 0
2 1 2 4 11 13 14 15 18 19 22 24 27 28 29 33 34 36 37 40 41 42 43 44 46 47 48 49 50 52 53 56 57 65 66 67 70 71 74 75 78 79 80 81 83 84 85 86 87 88 90 92 93 94 95 97
3 3 5 6 7 8 9 10 12 16 17 20 21 23 25 26 30 31 32 35 38 39 45 51 54 55 58 59 60 61 62 63 64 68 69 72 73 76 77 82 89 91 96 98 99 100
EOF